50
400
317
305
299
278
274
273
262
260
255
252
245
243
242
231
227
222
221
212
209
203
195
195
192
191
185
159
154
154
149
149
146
145
143
129
128
125
121
120
109
109
108
108
103
101
98
97
95
94
84
81
